Cu 111+H3MoOH                           
   1.00000000000000     
    10.2238998412999997    0.0000000000000000    0.0000000000000000
    -5.1119499206999999    8.8541569882999998    0.0000000000000000
     0.0000000000000000    0.0000000000000000   23.2607994080000005
   H    O    Mo   Cu
     4     1     1    48
Selective dynamics
Direct
    0.3123754193033745    0.4864985045759383    0.3271780092674375 T T T
    0.5010470402766347    0.3104529812988885    0.3275866041770665 T T T
    0.5094015147063856    0.5029229488053585    0.3301303722585207 T T T
    0.1227600541777333    0.1226189501436089    0.3927972440439357 T T T
    0.2212047025738454    0.2146350180551859    0.3955314986350390 T T T
    0.3386209858063768    0.3286678047614853    0.3326270369500865 T T T
   -0.0020904632657500   -0.0015115827688494    0.2541005833498635 F F F
    0.2505120528773263    0.0020408969052354    0.2554000365977637 F F F
    0.4996564197908602    0.0010921854469732    0.2540579475484235 F F F
    0.7496775081827142    0.0006202713655347    0.2538902558397414 F F F
    0.0004830776099670    0.2478485137209704    0.2544981051948293 F F F
    0.2360245772047886    0.2364504562920596    0.2446109395987960 F F F
    0.4948154310595340    0.2516823120784199    0.2568814648437947 F F F
    0.7504307971289033    0.2508223450420710    0.2540518756143214 F F F
    0.0025781416433199    0.4993293129897138    0.2539869338472371 F F F
    0.2538048475318564    0.4934830818140517    0.2578092045279042 F F F
    0.5105476036469641    0.5104405061537737    0.2529779477220855 F F F
    0.7531400519930933    0.5008934063125460    0.2538754069411549 F F F
    0.0017740160747673    0.7502467378775609    0.2539483547685465 F F F
    0.2506941601269137    0.7492193918149204    0.2540310851748085 F F F
    0.5018208789310377    0.7527110384671134    0.2536528442801085 F F F
    0.7539301760519829    0.7534292117786847    0.2536731896906876 F F F
    0.0756073204072386    0.1622825828005930    0.1686677213681999 F F F
    0.3363103616457491    0.1648551525382693    0.1704042341270733 F F F
    0.5829079071269636    0.1686748006767097    0.1727385975979963 F F F
    0.8331296776108407    0.1677361859649982    0.1719778765133554 F F F
    0.0865773159793306    0.4166950396985678    0.1727135247017049 F F F
    0.3369168061648143    0.4186507956277755    0.1714259815498426 F F F
    0.5838353135248566    0.4160244501731424    0.1721983077146336 F F F
    0.8345466568075065    0.4170463466900469    0.1719063396943425 F F F
    0.0837110418849938    0.6664752484656740    0.1718026601308121 F F F
    0.3323714474539853    0.6633989365644291    0.1728869735785822 F F F
    0.5855001807883762    0.6692385717506686    0.1711179877027748 F F F
    0.8334130408867060    0.6666918533358942    0.1719116803739761 F F F
    0.0843456060401868    0.9180881375469272    0.1721859157585289 F F F
    0.3327509685314038    0.9162347929473592    0.1722526525743732 F F F
    0.5825730053180557    0.9173917918341681    0.1716850820755700 F F F
    0.8324494168554553    0.9169393780911498    0.1716296351315410 F F F
    0.1666700000000034    0.0833299999999966    0.0897199999999998 F F F
    0.4166700000000034    0.0833299999999966    0.0897199999999998 F F F
    0.6666700000000034    0.0833299999999966    0.0897199999999998 F F F
    0.9166700000000034    0.0833299999999966    0.0897199999999998 F F F
    0.1666700000000034    0.3333299999999966    0.0897199999999998 F F F
    0.4166700000000034    0.3333299999999966    0.0897199999999998 F F F
    0.6666700000000034    0.3333299999999966    0.0897199999999998 F F F
    0.9166700000000034    0.3333299999999966    0.0897199999999998 F F F
    0.1666700000000034    0.5833299999999966    0.0897199999999998 F F F
    0.4166700000000034    0.5833299999999966    0.0897199999999998 F F F
    0.6666700000000034    0.5833299999999966    0.0897199999999998 F F F
    0.9166700000000034    0.5833299999999966    0.0897199999999998 F F F
    0.1666700000000034    0.8333299999999966    0.0897199999999998 F F F
    0.4166700000000034    0.8333299999999966    0.0897199999999998 F F F
    0.6666700000000034    0.8333299999999966    0.0897199999999998 F F F
    0.9166700000000034    0.8333299999999966    0.0897199999999998 F F F
 
  0.00000000E+00  0.00000000E+00  0.00000000E+00
  0.00000000E+00  0.00000000E+00  0.00000000E+00
  0.00000000E+00  0.00000000E+00  0.00000000E+00
  0.00000000E+00  0.00000000E+00  0.00000000E+00
  0.00000000E+00  0.00000000E+00  0.00000000E+00
  0.00000000E+00  0.00000000E+00  0.00000000E+00
  0.00000000E+00  0.00000000E+00  0.00000000E+00
  0.00000000E+00  0.00000000E+00  0.00000000E+00
  0.00000000E+00  0.00000000E+00  0.00000000E+00
  0.00000000E+00  0.00000000E+00  0.00000000E+00
  0.00000000E+00  0.00000000E+00  0.00000000E+00
  0.00000000E+00  0.00000000E+00  0.00000000E+00
  0.00000000E+00  0.00000000E+00  0.00000000E+00
  0.00000000E+00  0.00000000E+00  0.00000000E+00
  0.00000000E+00  0.00000000E+00  0.00000000E+00
  0.00000000E+00  0.00000000E+00  0.00000000E+00
  0.00000000E+00  0.00000000E+00  0.00000000E+00
  0.00000000E+00  0.00000000E+00  0.00000000E+00
  0.00000000E+00  0.00000000E+00  0.00000000E+00
  0.00000000E+00  0.00000000E+00  0.00000000E+00
  0.00000000E+00  0.00000000E+00  0.00000000E+00
  0.00000000E+00  0.00000000E+00  0.00000000E+00
  0.00000000E+00  0.00000000E+00  0.00000000E+00
  0.00000000E+00  0.00000000E+00  0.00000000E+00
  0.00000000E+00  0.00000000E+00  0.00000000E+00
  0.00000000E+00  0.00000000E+00  0.00000000E+00
  0.00000000E+00  0.00000000E+00  0.00000000E+00
  0.00000000E+00  0.00000000E+00  0.00000000E+00
  0.00000000E+00  0.00000000E+00  0.00000000E+00
  0.00000000E+00  0.00000000E+00  0.00000000E+00
  0.00000000E+00  0.00000000E+00  0.00000000E+00
  0.00000000E+00  0.00000000E+00  0.00000000E+00
  0.00000000E+00  0.00000000E+00  0.00000000E+00
  0.00000000E+00  0.00000000E+00  0.00000000E+00
  0.00000000E+00  0.00000000E+00  0.00000000E+00
  0.00000000E+00  0.00000000E+00  0.00000000E+00
  0.00000000E+00  0.00000000E+00  0.00000000E+00
  0.00000000E+00  0.00000000E+00  0.00000000E+00
  0.00000000E+00  0.00000000E+00  0.00000000E+00
  0.00000000E+00  0.00000000E+00  0.00000000E+00
  0.00000000E+00  0.00000000E+00  0.00000000E+00
  0.00000000E+00  0.00000000E+00  0.00000000E+00
  0.00000000E+00  0.00000000E+00  0.00000000E+00
  0.00000000E+00  0.00000000E+00  0.00000000E+00
  0.00000000E+00  0.00000000E+00  0.00000000E+00
  0.00000000E+00  0.00000000E+00  0.00000000E+00
  0.00000000E+00  0.00000000E+00  0.00000000E+00
  0.00000000E+00  0.00000000E+00  0.00000000E+00
  0.00000000E+00  0.00000000E+00  0.00000000E+00
  0.00000000E+00  0.00000000E+00  0.00000000E+00
  0.00000000E+00  0.00000000E+00  0.00000000E+00
  0.00000000E+00  0.00000000E+00  0.00000000E+00
  0.00000000E+00  0.00000000E+00  0.00000000E+00
  0.00000000E+00  0.00000000E+00  0.00000000E+00
