3-layer-slab-111+H3MoOH                 
   1.00000000000000     
     9.7093994548100504   -0.0043955301353149    0.0177645480375037
    -4.8585073343678324    8.4063683087318655   -0.0178325131230888
     0.0589447134256502   -0.0342631234155713   28.6947937872214993
   H    O    Mo   Ni
     4     1     1    48
Selective dynamics
Direct
    0.5038570040467764    0.2383748575075051    0.2795624462893764 T T T
    0.7060301061491244    0.4576183545271121    0.2830867196249667 T T T
    0.3014998223153935    0.2551154753461298    0.2829349875143394 T T T
    0.5069220758483006    0.5121335484120756    0.3709478633079752 T T T
    0.5047078650334030    0.5418233445917728    0.3385101264028589 T T T
    0.5040107370286068    0.4255378433465831    0.2859808709823921 T T T
   -0.0003909047627930    0.0003544971679092    0.2240540461548117 F F F
    0.2469710335342245   -0.0019692567399134    0.2236370193803473 F F F
    0.4987500329391874   -0.0023813111057903    0.2233638422610932 F F F
    0.7499950572023297    0.0005413648893493    0.2234070735685824 F F F
    0.0002479516777820    0.2507813778645698    0.2238516096186736 F F F
    0.2553469032172798    0.2546522393731643    0.2274541085892691 F F F
    0.4980206732381373    0.2425222837514276    0.2228078655658456 F F F
    0.7491103537678526    0.2491329364050782    0.2234203180864111 F F F
   -0.0022389694616912    0.5005431572146027    0.2239111508339979 F F F
    0.2480284595993678    0.5001171522205486    0.2245203650955699 F F F
    0.4958087336960857    0.5079057485532289    0.2163481442934386 F F F
    0.7424959172002676    0.4977350273018539    0.2271168859221747 F F F
   -0.0033799112161690    0.7486838919738641    0.2237723477131741 F F F
    0.2478080726385624    0.7492930063874083    0.2235377299651938 F F F
    0.4993950053699781    0.7518751531810531    0.2238514013405682 F F F
    0.7461360951049485    0.7488656597142980    0.2244382789338691 F F F
    0.0846630511026699    0.1671428016798206    0.1570429604352857 F F F
    0.3324338982523574    0.1675567348796785    0.1562999779806889 F F F
    0.5832200769284117    0.1663826319000501    0.1551721265505733 F F F
    0.8339691472653515    0.1676336541601950    0.1557754334214524 F F F
    0.0818507557883740    0.4172591669762509    0.1560870321781879 F F F
    0.3282531610300184    0.4134467664667111    0.1548007067868299 F F F
    0.5834151123104132    0.4152495203168599    0.1548964820024751 F F F
    0.8313415777132066    0.4175361947752602    0.1567646379884173 F F F
    0.0824944741981177    0.6666402333629211    0.1558469633264562 F F F
    0.3333946430730390    0.6658357306500823    0.1562457730536728 F F F
    0.5862885713253607    0.6717161369215817    0.1537892340639210 F F F
    0.8304796704645644    0.6639115764681648    0.1569157820854289 F F F
    0.0824127028148817    0.9158397578791656    0.1558586405968613 F F F
    0.3329033952524076    0.9171690637788633    0.1558557269168740 F F F
    0.5834992487812718    0.9174851196204483    0.1557192860952100 F F F
    0.8344820880035766    0.9169704815798290    0.1561449396785301 F F F
    0.1666700000000034    0.0833299999999966    0.0880599999999987 F F F
    0.4166700000000034    0.0833299999999966    0.0880599999999987 F F F
    0.6666700000000034    0.0833299999999966    0.0880599999999987 F F F
    0.9166700000000034    0.0833299999999966    0.0880599999999987 F F F
    0.1666700000000034    0.3333299999999966    0.0880599999999987 F F F
    0.4166700000000034    0.3333299999999966    0.0880599999999987 F F F
    0.6666700000000034    0.3333299999999966    0.0880599999999987 F F F
    0.9166700000000034    0.3333299999999966    0.0880599999999987 F F F
    0.1666700000000034    0.5833299999999966    0.0880599999999987 F F F
    0.4166700000000034    0.5833299999999966    0.0880599999999987 F F F
    0.6666700000000034    0.5833299999999966    0.0880599999999987 F F F
    0.9166700000000034    0.5833299999999966    0.0880599999999987 F F F
    0.1666700000000034    0.8333299999999966    0.0880599999999987 F F F
    0.4166700000000034    0.8333299999999966    0.0880599999999987 F F F
    0.6666700000000034    0.8333299999999966    0.0880599999999987 F F F
    0.9166700000000034    0.8333299999999966    0.0880599999999987 F F F
 
  0.00000000E+00  0.00000000E+00  0.00000000E+00
  0.00000000E+00  0.00000000E+00  0.00000000E+00
  0.00000000E+00  0.00000000E+00  0.00000000E+00
  0.00000000E+00  0.00000000E+00  0.00000000E+00
  0.00000000E+00  0.00000000E+00  0.00000000E+00
  0.00000000E+00  0.00000000E+00  0.00000000E+00
  0.00000000E+00  0.00000000E+00  0.00000000E+00
  0.00000000E+00  0.00000000E+00  0.00000000E+00
  0.00000000E+00  0.00000000E+00  0.00000000E+00
  0.00000000E+00  0.00000000E+00  0.00000000E+00
  0.00000000E+00  0.00000000E+00  0.00000000E+00
  0.00000000E+00  0.00000000E+00  0.00000000E+00
  0.00000000E+00  0.00000000E+00  0.00000000E+00
  0.00000000E+00  0.00000000E+00  0.00000000E+00
  0.00000000E+00  0.00000000E+00  0.00000000E+00
  0.00000000E+00  0.00000000E+00  0.00000000E+00
  0.00000000E+00  0.00000000E+00  0.00000000E+00
  0.00000000E+00  0.00000000E+00  0.00000000E+00
  0.00000000E+00  0.00000000E+00  0.00000000E+00
  0.00000000E+00  0.00000000E+00  0.00000000E+00
  0.00000000E+00  0.00000000E+00  0.00000000E+00
  0.00000000E+00  0.00000000E+00  0.00000000E+00
  0.00000000E+00  0.00000000E+00  0.00000000E+00
  0.00000000E+00  0.00000000E+00  0.00000000E+00
  0.00000000E+00  0.00000000E+00  0.00000000E+00
  0.00000000E+00  0.00000000E+00  0.00000000E+00
  0.00000000E+00  0.00000000E+00  0.00000000E+00
  0.00000000E+00  0.00000000E+00  0.00000000E+00
  0.00000000E+00  0.00000000E+00  0.00000000E+00
  0.00000000E+00  0.00000000E+00  0.00000000E+00
  0.00000000E+00  0.00000000E+00  0.00000000E+00
  0.00000000E+00  0.00000000E+00  0.00000000E+00
  0.00000000E+00  0.00000000E+00  0.00000000E+00
  0.00000000E+00  0.00000000E+00  0.00000000E+00
  0.00000000E+00  0.00000000E+00  0.00000000E+00
  0.00000000E+00  0.00000000E+00  0.00000000E+00
  0.00000000E+00  0.00000000E+00  0.00000000E+00
  0.00000000E+00  0.00000000E+00  0.00000000E+00
  0.00000000E+00  0.00000000E+00  0.00000000E+00
  0.00000000E+00  0.00000000E+00  0.00000000E+00
  0.00000000E+00  0.00000000E+00  0.00000000E+00
  0.00000000E+00  0.00000000E+00  0.00000000E+00
  0.00000000E+00  0.00000000E+00  0.00000000E+00
  0.00000000E+00  0.00000000E+00  0.00000000E+00
  0.00000000E+00  0.00000000E+00  0.00000000E+00
  0.00000000E+00  0.00000000E+00  0.00000000E+00
  0.00000000E+00  0.00000000E+00  0.00000000E+00
  0.00000000E+00  0.00000000E+00  0.00000000E+00
  0.00000000E+00  0.00000000E+00  0.00000000E+00
  0.00000000E+00  0.00000000E+00  0.00000000E+00
  0.00000000E+00  0.00000000E+00  0.00000000E+00
  0.00000000E+00  0.00000000E+00  0.00000000E+00
  0.00000000E+00  0.00000000E+00  0.00000000E+00
  0.00000000E+00  0.00000000E+00  0.00000000E+00
